experiment/data/hgs-res/Vrp-Set-A-n60/Vrp-Set-A-n60-hgs/0.hgs1.vrp
NAME : 0
COMMENT : CVRP Instance
TYPE : CVRP
DIMENSION : 60
EDGE_WEIGHT_TYPE : EUC_2D
CAPACITY : 100
NODE_COORD_SECTION
1	27.0	93.0
2	33.0	27.0
3	29.0	39.0
4	7.0	81.0
5	1.0	59.0
6	49.0	9.0
7	21.0	53.0
8	79.0	89.0
9	81.0	83.0
10	85.0	11.0
11	45.0	9.0
12	7.0	65.0
13	95.0	27.0
14	81.0	85.0
15	37.0	81.0
16	69.0	69.0
17	15.0	95.0
18	89.0	75.0
19	33.0	93.0
20	57.0	83.0
21	11.0	95.0
22	3.0	57.0
23	45.0	11.0
24	43.0	61.0
25	35.0	43.0
26	19.0	83.0
27	83.0	69.0
28	85.0	77.0
29	19.0	39.0
30	83.0	87.0
31	1.0	13.0
32	15.0	39.0
33	83.0	17.0
34	41.0	97.0
35	31.0	61.0
36	59.0	69.0
37	29.0	15.0
38	93.0	83.0
39	63.0	97.0
40	65.0	57.0
41	15.0	69.0
42	31.0	97.0
43	57.0	9.0
44	85.0	37.0
45	21.0	29.0
46	53.0	11.0
47	15.0	77.0
48	41.0	69.0
49	45.0	17.0
50	13.0	25.0
51	63.0	57.0
52	95.0	5.0
53	55.0	91.0
54	3.0	31.0
55	47.0	7.0
56	61.0	69.0
57	85.0	35.0
58	89.0	81.0
59	45.0	47.0
60	65.0	93.0
DEMAND_SECTION
1	0
2	16
3	2
4	7
5	11
6	9
7	17
8	21
9	23
10	10
11	6
12	19
13	18
14	20
15	13
16	5
17	11
18	24
19	2
20	3
21	1
22	5
23	20
24	23
25	24
26	18
27	19
28	2
29	17
30	17
31	9
32	11
33	2
34	6
35	9
36	5
37	9
38	2
39	14
40	19
41	11
42	21
43	20
44	21
45	18
46	48
47	1
48	17
49	42
50	2
51	4
52	24
53	18
54	21
55	11
56	9
57	18
58	22
59	9
60	23
DEPOT_SECTION
1
-1
EOF
